
Gurobi 9.5.1 (linux64) logging started Tue Jun 21 03:56:08 2022

Set parameter LogFile to value "../results/logs/log_soc-twitter-higgs.e_17_250_2022_06_21_01_26.log"
Gurobi Optimizer version 9.5.1 build v9.5.1rc2 (linux64)
Thread count: 8 physical cores, 8 logical processors, using up to 8 threads
Optimize a model with 151392 rows, 913262 columns and 994883 nonzeros
Model fingerprint: 0x8a1fa821
Variable types: 0 continuous, 913262 integer (913262 binary)
Coefficient statistics:
  Matrix range     [1e+00, 2e+01]
  Objective range  [1e+00, 1e+00]
  Bounds range     [1e+00, 1e+00]
  RHS range        [1e+00, 2e+02]
Found heuristic solution: objective 231419.00000
Presolve removed 136110 rows and 892488 columns
Presolve time: 1.33s
Presolved: 15282 rows, 20774 columns, 70802 nonzeros
Found heuristic solution: objective 231723.00000
Variable types: 0 continuous, 20774 integer (18706 binary)

Root relaxation: objective 2.329797e+05, 10615 iterations, 0.75 seconds (1.11 work units)

    Nodes    |    Current Node    |     Objective Bounds      |     Work
 Expl Unexpl |  Obj  Depth IntInf | Incumbent    BestBd   Gap | It/Node Time

     0     0 232979.700    0 1948 231723.000 232979.700  0.54%     -    3s
H    0     0                    232061.00000 232979.700  0.40%     -    3s
     0     0 232509.327    0 1257 232061.000 232509.327  0.19%     -    3s
H    0     0                    232182.00000 232509.327  0.14%     -    3s
     0     0 232462.866    0 1216 232182.000 232462.866  0.12%     -    4s
     0     0 232458.985    0 1224 232182.000 232458.985  0.12%     -    4s
     0     0 232458.769    0 1219 232182.000 232458.769  0.12%     -    4s
     0     0 232458.757    0 1226 232182.000 232458.757  0.12%     -    4s
H    0     0                    232261.00000 232399.456  0.06%     -    4s
     0     0 232399.456    0 1112 232261.000 232399.456  0.06%     -    4s
     0     0 232389.697    0 1072 232261.000 232389.697  0.06%     -    5s
     0     0 232387.413    0 1072 232261.000 232387.413  0.05%     -    5s
     0     0 232386.955    0 1095 232261.000 232386.955  0.05%     -    5s
     0     0 232386.749    0 1064 232261.000 232386.749  0.05%     -    5s
     0     0 232368.387    0  982 232261.000 232368.387  0.05%     -    6s
H    0     0                    232305.00000 232368.387  0.03%     -    7s
     0     0 232363.249    0  850 232305.000 232363.249  0.03%     -    7s
     0     0 232360.874    0  911 232305.000 232360.874  0.02%     -    7s
     0     0 232360.217    0  954 232305.000 232360.217  0.02%     -    7s
     0     0 232359.963    0 1031 232305.000 232359.963  0.02%     -    7s
     0     0 232354.572    0 1040 232305.000 232354.572  0.02%     -    8s
     0     0 232351.915    0  997 232305.000 232351.915  0.02%     -    9s
     0     0 232350.929    0  957 232305.000 232350.929  0.02%     -    9s
     0     0 232350.740    0  998 232305.000 232350.740  0.02%     -    9s
     0     0 232349.052    0  919 232305.000 232349.052  0.02%     -    9s
H    0     0                    232313.00000 232349.052  0.02%     -    9s
     0     0 232348.553    0  912 232313.000 232348.553  0.02%     -   10s
     0     0 232348.265    0  973 232313.000 232348.265  0.02%     -   10s
     0     0 232347.305    0  927 232313.000 232347.305  0.01%     -   10s
     0     0 232347.305    0  921 232313.000 232347.305  0.01%     -   11s
     0     2 232346.795    0  918 232313.000 232346.795  0.01%     -   12s
H   34    40                    232314.00000 232345.573  0.01%   133   14s
    80   131 232340.669   12  977 232314.000 232345.573  0.01%  78.4   15s
H  117   131                    232315.00000 232345.573  0.01%  62.8   15s
H  257   279                    232317.00000 232345.573  0.01%  49.9   16s
   557  1052 232332.951   52  592 232317.000 232345.573  0.01%  51.5   21s
H 1112  1321                    232320.00000 232345.573  0.01%  45.8   24s
H 1331  1049                    232327.00000 232345.573  0.01%  44.9   24s
  1525  1168     cutoff  145      232327.000 232345.508  0.01%  43.6   26s
H 2041  1551                    232328.00000 232345.461  0.01%  49.2   29s
H 2081  1442                    232329.00000 232345.461  0.01%  48.9   29s
  2633  1301 232333.452   22  921 232329.000 232345.461  0.01%  50.5   31s
  2638  1304 232330.283   32  879 232329.000 232345.461  0.01%  50.4   35s
  2659  1318 232334.009   37  540 232329.000 232338.003  0.00%  50.1   40s
  2674  1328 232331.217   42  620 232329.000 232333.711  0.00%  49.8   45s
  2688  1338 232332.054   11  632 232329.000 232332.054  0.00%  49.5   50s
  2700  1347 232330.814   31  731 232329.000 232331.562  0.00%  63.8   55s
  2728  1365 232331.562   10  446 232329.000 232331.562  0.00%  63.1   60s
  2754  1384 232331.095   31  607 232329.000 232331.095  0.00%  70.7   65s
  2795  1413 232330.692    7  299 232329.000 232330.692  0.00%  75.8   70s
  2838  1443 232330.283   32  921 232329.000 232330.692  0.00%  78.9   75s
  2882  1474 232330.405   36  230 232329.000 232330.405  0.00%  80.6   80s
  2942  1516 232330.068   13  128 232329.000 232330.068  0.00%  81.1   85s

Cutting planes:
  Gomory: 28
  Lift-and-project: 35
  Cover: 21
  Implied bound: 8
  Clique: 7
  MIR: 50
  StrongCG: 7
  Flow cover: 155
  GUB cover: 61
  Zero half: 36
  Mod-K: 2
  RLT: 18
  Relax-and-lift: 3

Explored 2973 nodes (271040 simplex iterations) in 86.04 seconds (80.78 work units)
Thread count was 8 (of 8 available processors)

Solution count 10: 232329 232329 232329 ... 232328

Optimal solution found (tolerance 0.00e+00)
Best objective 2.323290000011e+05, best bound 2.323290000011e+05, gap 0.0000%
